Version identifier: 22.1.0.0 | 2022-03-09 | 1a383f8ce
CPXPARAM_Threads                                 1
CPXPARAM_MIP_Strategy_VariableSelect             3
CPXPARAM_TimeLimit                               599.99998454199999
1 of 1 MIP starts provided solutions.
MIP start 'm1' defined initial solution with objective 1.0000.
Tried aggregator 1 time.
MIP Presolve eliminated 8 rows and 0 columns.
MIP Presolve modified 5 coefficients.
Reduced MIP has 2117 rows, 7500 columns, and 114611 nonzeros.
Reduced MIP has 7500 binaries, 0 generals, 0 SOSs, and 0 indicators.
Presolve time = 0.07 sec. (55.05 ticks)
Probing time = 0.01 sec. (7.39 ticks)
Tried aggregator 1 time.
Detecting symmetries...
Reduced MIP has 2117 rows, 7500 columns, and 114611 nonzeros.
Reduced MIP has 7500 binaries, 0 generals, 0 SOSs, and 0 indicators.
Presolve time = 0.08 sec. (59.38 ticks)
Probing time = 0.01 sec. (7.39 ticks)
Clique table members: 602.
MIP emphasis: balance optimality and feasibility.
MIP search method: dynamic search.
Parallel mode: none, using 1 thread.
Root relaxation solution time = 1.44 sec. (1529.63 ticks)

        Nodes                                         Cuts/
   Node  Left     Objective  IInf  Best Integer    Best Bound    ItCnt     Gap

*     0+    0                            1.0000     7500.0000              --- 
      0     0      300.0000  1084        1.0000      300.0000     4882     --- 
*     0+    0                          300.0000      300.0000             0.00%
      0     0        cutoff            300.0000      300.0000     4882    0.00%
Elapsed time = 11.58 sec. (13896.78 ticks, tree = 0.01 MB, solutions = 2)

Root node processing (before b&c):
  Real time             =   11.58 sec. (13897.07 ticks)
Sequential b&c:
  Real time             =    0.00 sec. (0.00 ticks)
                          ------------
Total (root+branch&cut) =   11.58 sec. (13897.07 ticks)
Primal:	300
Dual:	300
Status:	Optimal
Time:	11.59
Sequence:
	0
	7
	22
	21
	16
	6
	22
	10
	19
	14
	2
	10
	13
	21
	8
	10
	13
	14
	9
	14
	23
	7
	3
	10
	16
	9
	20
	19
	23
	15
	9
	13
	14
	16
	9
	10
	16
	13
	17
	24
	21
	24
	11
	16
	6
	16
	11
	24
	21
	23
	15
	23
	23
	21
	2
	14
	13
	11
	16
	21
	23
	22
	21
	13
	16
	11
	13
	14
	24
	17
	13
	14
	24
	11
	12
	6
	16
	1
	13
	21
	12
	11
	24
	6
	16
	17
	13
	10
	19
	18
	16
	10
	13
	17
	24
	14
	13
	15
	24
	11
	16
	4
	13
	11
	16
	7
	16
	11
	24
	14
	24
	15
	13
	10
	8
	6
	16
	20
	2
	21
	13
	14
	22
	6
	19
	10
	3
	20
	13
	21
	2
	21
	13
	9
	14
	13
	14
	9
	13
	21
	23
	17
	13
	10
	8
	7
	16
	10
	2
	14
	23
	21
	22
	6
	16
	11
	19
	20
	12
	15
	13
	20
	23
	15
	16
	20
	24
	11
	16
	21
	22
	14
	13
	10
	8
	6
	16
	11
	2
	21
	13
	15
	24
	21
	13
	11
	12
	7
	12
	11
	24
	21
	22
	14
	13
	10
	8
	13
	14
	24
	9
	21
	19
	6
	9
	5
	24
	17
	13
	10
	16
	9
	12
	6
	2
	14
	13
	5
	9
	10
	16
	7
	8
	6
	16
	6
	22
	14
	13
	21
	9
	20
	19
	11
	19
	20
	24
	15
	24
	14
	13
	11
	16
	13
	21
	2
	10
	16
	2
	16
	10
	9
	16
	20
	19
	11
	24
	21
	23
	17
	24
	10
	19
	2
	12
	10
	19
	11
	16
	6
	16
	11
	13
	14
	23
	15
	16
	10
	13
	1
	19
	5
	9
	6
	2
	14
	12
	24
	11
	24
	14
	19
	1
	23
	6
	16
	17
	13
	10
	13
